DIMENSION: 16
EDGE_WEIGHT_TYPE : EUC_2D
NODE_COORD_SECTION
1 89.00 29.00
2 90.00 39.00
3 6.00 39.00
4 96.00 43.00
5 28.00 34.00
6 88.00 17.00
7 37.00 72.00
8 59.00 34.00
9 62.00 83.00
10 68.00 10.00
11 66.00 36.00
12 78.00 66.00
13 22.00 66.00
14 97.00 90.00
15 7.00 73.00
16 49.00 97.00
TOUR_SECTION
10
6
1
2
4
12
14
9
16
7
13
15
3
5
8
11